
Gurobi 10.0.1 (mac64[arm], Python) logging started Thu Feb 16 11:04:45 2023

Set parameter LogFile to value "gurobi.log"

Gurobi 10.0.1 (mac64[arm], Python) logging started Thu Feb 16 11:09:30 2023

Set parameter Username
Set parameter LogFile to value "gurobi.log"
Academic license - for non-commercial use only - expires 2024-02-11

Gurobi 10.0.1 (mac64[arm], Python) logging started Thu Feb 16 11:12:01 2023

Set parameter Username
Set parameter LogFile to value "gurobi.log"
Academic license - for non-commercial use only - expires 2024-02-11

Gurobi 10.0.1 (mac64[arm], Python) logging started Mon Feb 27 08:49:35 2023

Set parameter LogFile to value "gurobi.log"

Gurobi 10.0.1 (mac64[arm], Python) logging started Mon Feb 27 09:01:16 2023

Set parameter LogFile to value "gurobi.log"

Gurobi 10.0.1 (mac64[arm], Python) logging started Mon Feb 27 09:02:51 2023

Set parameter LogFile to value "gurobi.log"
